
;this file is automatically generated: Thu Jan 02 16:54:47 GMT 2020

;declarations generated

(declare-fun oclExcludes ( Int Int) Bool)
(declare-fun obj_91d16925_da8f_4c4f_86ab_e17d29981ef4 ( Int) Int)
(declare-fun Cardinality ( Int) Int)
(declare-fun class41_Class41IntAttr4 ( Int) Int)
(declare-fun class41_Class41IntAttr3 ( Int) Int)
(declare-fun oclSelect ( Int Bool) Int)
(declare-fun Enum0 ( Int) Int)
(declare-fun Enum1 ( Int) Int)
(declare-fun Enum2 ( Int) Int)
(declare-fun container_ ( Int) Int)
(declare-fun type_ae005e3f_1ef6_43c2_bb91_868f9d8e6b19_Class41 ( Int) Bool)
(declare-fun oclIncludes ( Int Int) Bool)
(declare-fun ObjAt ( Int Int) Int)

;formula(s) generated
(assert (! (forall ((v Int)) (=> ( type_ae005e3f_1ef6_43c2_bb91_868f9d8e6b19_Class41 v )  (or (< ( class41_Class41IntAttr3 ( obj_91d16925_da8f_4c4f_86ab_e17d29981ef4 v )  )  12) (and (forall ((v Int)) (=> ( type_ae005e3f_1ef6_43c2_bb91_868f9d8e6b19_Class41 v )  (= ( class41_Class41IntAttr3 ( obj_91d16925_da8f_4c4f_86ab_e17d29981ef4 v )  )  1))) (forall ((v Int)) (=> ( type_ae005e3f_1ef6_43c2_bb91_868f9d8e6b19_Class41 v )  (>= ( class41_Class41IntAttr4 ( obj_91d16925_da8f_4c4f_86ab_e17d29981ef4 v )  )  5))))))):named l0))
(assert (exists ((o Int)) ( type_ae005e3f_1ef6_43c2_bb91_868f9d8e6b19_Class41 ( obj_91d16925_da8f_4c4f_86ab_e17d29981ef4 o )  ) ))

 ;end of formula 